(set-logic ALL)
(declare-var x (BitVec 32))
(declare-var y (BitVec 32))
(declare-var n (BitVec 32))
(declare-var v1 (BitVec 32))
(declare-var v2 (BitVec 32))
(declare-var v3 (BitVec 32))
(declare-var x! (BitVec 32))
(declare-var y! (BitVec 32))
(declare-var n! (BitVec 32))
(declare-var v1! (BitVec 32))
(declare-var v2! (BitVec 32))
(declare-var v3! (BitVec 32))
(synth-fun inv-f((parameter0 (BitVec 32))(parameter1 (BitVec 32))(parameter2 (BitVec 32))(parameter3 (BitVec 32))(parameter4 (BitVec 32))(parameter5 (BitVec 32)))Bool) 
(constraint (=> (= x (_ bv1 32))(inv-f x y n v1 v2 v3 )))
(constraint (=> (and (inv-f x y n v1 v2 v3 ) (and (and (bvule x n) (= y! (bvsub n x)) ) (= x! (bvadd x (_ bv1 32))) ) )(inv-f x! y! n! v1! v2! v3! )))
(constraint (=> (inv-f x y n v1 v2 v3 )(not (and (and (bvule x n) (= y (bvsub n x)) ) (or (bvuge y n) (bvugt (_ bv0 32) y) ) ))))
(check-synth)

